Welcome to the CBC MILP Solver 
Version: Trunk
Build Date: Apr 16 2020 

Starting solution of the Linear programming relaxation problem using Primal Simplex

Using Python-MIP package version 1.8.1
Machines:  3 Jobs:  3
Order: 
Job  0 : machine 1 ( 7 ) machine 2 ( 7 ) machine 0 ( 1 ) 
Job  1 : machine 1 ( 4 ) machine 0 ( 3 ) machine 2 ( 7 ) 
Job  2 : machine 1 ( 7 ) machine 2 ( 6 ) machine 0 ( 2 ) 
K:  33
Job  0 , e: machine  0 ( 14 ) machine  1 ( 0 ) machine  2 ( 7 ) 
Job  1 , e: machine  0 ( 4 ) machine  1 ( 0 ) machine  2 ( 7 ) 
Job  2 , e: machine  0 ( 13 ) machine  1 ( 0 ) machine  2 ( 7 ) 
Job  0 , f: machine  0 ( 0 ) machine  1 ( 8 ) machine  2 ( 1 ) 
Job  1 , f: machine  0 ( 7 ) machine  1 ( 10 ) machine  2 ( 0 ) 
Job  2 , f: machine  0 ( 0 ) machine  1 ( 8 ) machine  2 ( 2 ) 
EST and LST:
Job: 0 Machine: 0 EST: 14 LST: 32
Job: 0 Machine: 1 EST: 0 LST: 18
Job: 0 Machine: 2 EST: 7 LST: 25
Job: 1 Machine: 0 EST: 4 LST: 23
Job: 1 Machine: 1 EST: 0 LST: 19
Job: 1 Machine: 2 EST: 7 LST: 26
Job: 2 Machine: 0 EST: 13 LST: 31
Job: 2 Machine: 1 EST: 0 LST: 18
Job: 2 Machine: 2 EST: 7 LST: 25
Order:
Job: 0 Machine: 0 = 2 
Job: 0 Machine: 1 = 0 
Job: 0 Machine: 2 = 1 
Job: 1 Machine: 0 = 1 
Job: 1 Machine: 1 = 0 
Job: 1 Machine: 2 = 2 
Job: 2 Machine: 0 = 2 
Job: 2 Machine: 1 = 0 
Job: 2 Machine: 2 = 1 
Distances:
Job 0, Machine 1 -> Machine 2: distance 7
Job 0, Machine 1 -> Machine 0: distance 14
Job 0, Machine 2 -> Machine 0: distance 7
Job 1, Machine 1 -> Machine 0: distance 4
Job 1, Machine 1 -> Machine 2: distance 7
Job 1, Machine 0 -> Machine 2: distance 3
Job 2, Machine 1 -> Machine 2: distance 7
Job 2, Machine 1 -> Machine 0: distance 13
Job 2, Machine 2 -> Machine 0: distance 6
McCormic linearization
{(0, 1), (1, 2), (0, 0), (0, 2), (2, 1), (2, 0), (2, 2), (1, 0), (1, 1)}
[(0, 1), (1, 2), (0, 0), (0, 2), (2, 1), (2, 0), (2, 2), (1, 0), (1, 1)]
obj:  0.0
solutions:  1
+ 0.14285714285714285x(0,1) + 0.14285714285714285x(2,1) 
C:  18.5
x(0,0) = 17.50	 x(0,1) = 3.50	 x(0,2) = 10.50	 
x(1,0) = 8.50	 x(1,1) = 4.50	 x(1,2) = 11.50	 
x(2,0) = 16.50	 x(2,1) = 3.50	 x(2,2) = 10.50	 
y(0,1,0) = 0.00	 y(1,0,0) = 1.00	 
y(0,2,0) = 0.90	 y(2,0,0) = 0.10	 
y(1,2,0) = 0.59	 y(2,1,0) = 0.41	 
y(0,1,1) = 0.22	 y(1,0,1) = 0.78	 
y(0,2,1) = 0.50	 y(2,0,1) = 0.50	 
y(1,2,1) = 0.36	 y(2,1,1) = 0.64	 
y(0,1,2) = 0.50	 y(1,0,2) = 0.50	 
y(0,2,2) = 0.42	 y(2,0,2) = 0.58	 
y(1,2,2) = 0.49	 y(2,1,2) = 0.51	 
{(1, 2), (0, 1), (0, 0), (2, 1), (1, 1), (2, 2), (1, 0), (0, 2)}
obj:  0.6380952380952379
solutions:  1
+ 0.06666666666666667x(0,1) + 0.06666666666666667x(2,1) + 0.038095238095238106x(1,1) 
[(1, 2), (0, 1), (0, 0), (2, 1), (1, 1), (2, 2), (1, 0), (0, 2)]
cliques:  1 mip: 32
C:  21.546296296296294
x(0,0) = 20.55	 x(0,1) = 6.55	 x(0,2) = 13.55	 
x(1,0) = 10.05	 x(1,1) = 6.05	 x(1,2) = 13.05	 
x(2,0) = 18.55	 x(2,1) = 5.00	 x(2,2) = 12.00	 
y(0,1,0) = 0.00	 y(1,0,0) = 1.00	 
y(0,2,0) = 0.00	 y(2,0,0) = 1.00	 
y(1,2,0) = 0.53	 y(2,1,0) = 0.47	 
y(0,1,1) = 0.70	 y(1,0,1) = 0.30	 
y(0,2,1) = 0.22	 y(2,0,1) = 0.78	 
y(1,2,1) = 0.24	 y(2,1,1) = 0.76	 
y(0,1,2) = 0.25	 y(1,0,2) = 0.75	 
y(0,2,2) = 0.19	 y(2,0,2) = 0.81	 
y(1,2,2) = 0.69	 y(2,1,2) = 0.31	 
{(1, 2), (0, 1), (2, 0), (1, 1), (2, 2), (1, 0), (0, 2)}
obj:  0.9455685408066362
solutions:  1
+ 0.025641025641025644x(1,2) + 0.021978021978021983x(2,2) + 0.02564102564102564x(0,2) 
[(1, 2), (0, 1), (2, 0), (1, 1), (2, 2), (1, 0), (0, 2)]
cliques:  1 mip: 65
C:  22.836784409256843
x(0,0) = 21.84	 x(0,1) = 7.84	 x(0,2) = 14.84	 
x(1,0) = 12.84	 x(1,1) = 3.84	 x(1,2) = 15.84	 
x(2,0) = 19.84	 x(2,1) = 4.97	 x(2,2) = 11.97	 
y(0,1,0) = 0.00	 y(1,0,0) = 1.00	 
y(0,2,0) = 0.00	 y(2,0,0) = 1.00	 
y(1,2,0) = 0.63	 y(2,1,0) = 0.37	 
y(0,1,1) = 0.00	 y(1,0,1) = 1.00	 
y(0,2,1) = 0.61	 y(2,0,1) = 0.39	 
y(1,2,1) = 0.64	 y(2,1,1) = 0.36	 
y(0,1,2) = 0.46	 y(1,0,2) = 0.54	 
y(0,2,2) = 0.52	 y(2,0,2) = 0.48	 
y(1,2,2) = 0.54	 y(2,1,2) = 0.46	 
{(0, 1), (1, 2), (2, 1), (1, 1), (2, 2), (0, 2)}
obj:  1.0
erro
[(0, 1), (1, 2), (2, 1), (1, 1), (2, 2), (0, 2)]
cliques:  0 mip: 54
C:  24.191998856015395
x(0,0) = 23.19	 x(0,1) = 8.71	 x(0,2) = 15.71	 
x(1,0) = 14.19	 x(1,1) = 4.93	 x(1,2) = 17.19	 
x(2,0) = 18.30	 x(2,1) = 3.47	 x(2,2) = 12.30	 
y(0,1,0) = 0.00	 y(1,0,0) = 1.00	 
y(0,2,0) = 0.00	 y(2,0,0) = 1.00	 
y(1,2,0) = 0.37	 y(2,1,0) = 0.63	 
y(0,1,1) = 0.08	 y(1,0,1) = 0.92	 
y(0,2,1) = 0.07	 y(2,0,1) = 0.93	 
y(1,2,1) = 0.22	 y(2,1,1) = 0.78	 
y(0,1,2) = 0.78	 y(1,0,2) = 0.22	 
y(0,2,2) = 0.27	 y(2,0,2) = 0.73	 
y(1,2,2) = 0.22	 y(2,1,2) = 0.78	 
{(1, 2), (0, 1), (2, 0), (1, 1), (2, 2), (1, 0), (0, 2)}
obj:  1.1139035432930229
erro
[(1, 2), (0, 1), (2, 0), (1, 1), (2, 2), (1, 0), (0, 2)]
cliques:  0 mip: 80
C:  25.0
x(0,0) = 24.00	 x(0,1) = 4.45	 x(0,2) = 13.62	 
x(1,0) = 15.00	 x(1,1) = 10.21	 x(1,2) = 18.00	 
x(2,0) = 17.72	 x(2,1) = 4.71	 x(2,2) = 11.72	 
y(0,1,0) = 0.00	 y(1,0,0) = 1.00	 
y(0,2,0) = 0.00	 y(2,0,0) = 1.00	 
y(1,2,0) = 0.16	 y(2,1,0) = 0.84	 
y(0,1,1) = 0.92	 y(1,0,1) = 0.08	 
y(0,2,1) = 0.59	 y(2,0,1) = 0.41	 
y(1,2,1) = 0.17	 y(2,1,1) = 0.83	 
y(0,1,2) = 0.90	 y(1,0,2) = 0.10	 
y(0,2,2) = 0.17	 y(2,0,2) = 0.83	 
y(1,2,2) = 0.10	 y(2,1,2) = 0.90	 
{(0, 1), (1, 1), (2, 1)}
obj:  0.9999999999999999
erro
[(0, 1), (1, 1), (2, 1)]
cliques:  0 mip: 76
C:  25.0
x(0,0) = 24.00	 x(0,1) = 5.97	 x(0,2) = 12.97	 
x(1,0) = 15.00	 x(1,1) = 7.01	 x(1,2) = 18.00	 
x(2,0) = 22.00	 x(2,1) = 5.72	 x(2,2) = 12.72	 
y(0,1,0) = 0.00	 y(1,0,0) = 1.00	 
y(0,2,0) = 0.00	 y(2,0,0) = 1.00	 
y(1,2,0) = 0.36	 y(2,1,0) = 0.64	 
y(0,1,1) = 0.67	 y(1,0,1) = 0.33	 
y(0,2,1) = 0.47	 y(2,0,1) = 0.53	 
y(1,2,1) = 0.77	 y(2,1,1) = 0.23	 
y(0,1,2) = 0.46	 y(1,0,2) = 0.54	 
y(0,2,2) = 0.71	 y(2,0,2) = 0.29	 
y(1,2,2) = 0.53	 y(2,1,2) = 0.47	 
{(1, 2), (0, 1), (2, 1), (1, 1), (2, 2), (1, 0), (0, 2)}
obj:  1.0463845353645145
erro
[(1, 2), (0, 1), (2, 1), (1, 1), (2, 2), (1, 0), (0, 2)]
cliques:  0 mip: 59
C:  25.000000000000004
x(0,0) = 24.00	 x(0,1) = 7.14	 x(0,2) = 17.00	 
x(1,0) = 15.00	 x(1,1) = 6.77	 x(1,2) = 18.00	 
x(2,0) = 22.00	 x(2,1) = 4.25	 x(2,2) = 11.25	 
y(0,1,0) = 0.00	 y(1,0,0) = 1.00	 
y(0,2,0) = 0.00	 y(2,0,0) = 1.00	 
y(1,2,0) = 0.31	 y(2,1,0) = 0.69	 
y(0,1,1) = 0.48	 y(1,0,1) = 0.52	 
y(0,2,1) = 0.35	 y(2,0,1) = 0.65	 
y(1,2,1) = 0.72	 y(2,1,1) = 0.28	 
y(0,1,2) = 0.70	 y(1,0,2) = 0.30	 
y(0,2,2) = 0.44	 y(2,0,2) = 0.56	 
y(1,2,2) = 0.17	 y(2,1,2) = 0.83	 
{(0, 1), (1, 1), (2, 1)}
obj:  1.0175326230205857
erro
[(0, 1), (1, 1), (2, 1)]
cliques:  0 mip: 59
C:  25.0
x(0,0) = 20.16	 x(0,1) = 6.16	 x(0,2) = 13.16	 
x(1,0) = 15.00	 x(1,1) = 6.23	 x(1,2) = 18.00	 
x(2,0) = 18.28	 x(2,1) = 5.28	 x(2,2) = 12.28	 
y(0,1,0) = 0.00	 y(1,0,0) = 1.00	 
y(0,2,0) = 0.21	 y(2,0,0) = 0.79	 
y(1,2,0) = 0.18	 y(2,1,0) = 0.82	 
y(0,1,1) = 0.64	 y(1,0,1) = 0.36	 
y(0,2,1) = 0.44	 y(2,0,1) = 0.56	 
y(1,2,1) = 0.71	 y(2,1,1) = 0.29	 
y(0,1,2) = 0.90	 y(1,0,2) = 0.10	 
y(0,2,2) = 0.68	 y(2,0,2) = 0.32	 
y(1,2,2) = 0.35	 y(2,1,2) = 0.65	 
{(0, 1), (1, 1), (2, 1)}
obj:  1.0000000000000002
erro
[(0, 1), (1, 1), (2, 1)]
cliques:  0 mip: 82
C:  25.0
x(0,0) = 23.46	 x(0,1) = 8.16	 x(0,2) = 16.46	 
x(1,0) = 15.00	 x(1,1) = 2.54	 x(1,2) = 18.00	 
x(2,0) = 23.00	 x(2,1) = 6.00	 x(2,2) = 13.00	 
y(0,1,0) = 0.00	 y(1,0,0) = 1.00	 
y(0,2,0) = 0.27	 y(2,0,0) = 0.73	 
y(1,2,0) = 0.60	 y(2,1,0) = 0.40	 
y(0,1,1) = 0.31	 y(1,0,1) = 0.69	 
y(0,2,1) = 0.35	 y(2,0,1) = 0.65	 
y(1,2,1) = 0.98	 y(2,1,1) = 0.02	 
y(0,1,2) = 0.58	 y(1,0,2) = 0.42	 
y(0,2,2) = 0.11	 y(2,0,2) = 0.89	 
y(1,2,2) = 0.47	 y(2,1,2) = 0.53	 
{(1, 2), (0, 1), (0, 0), (2, 1), (1, 1), (2, 2), (1, 0), (0, 2)}
obj:  1.0403147788005316
erro
[(1, 2), (0, 1), (0, 0), (2, 1), (1, 1), (2, 2), (1, 0), (0, 2)]
cliques:  0 mip: 76
C:  25.0
x(0,0) = 23.95	 x(0,1) = 9.18	 x(0,2) = 16.18	 
x(1,0) = 15.00	 x(1,1) = 0.13	 x(1,2) = 18.00	 
x(2,0) = 21.81	 x(2,1) = 5.75	 x(2,2) = 15.10	 
y(0,1,0) = 0.00	 y(1,0,0) = 1.00	 
y(0,2,0) = 0.03	 y(2,0,0) = 0.97	 
y(1,2,0) = 0.93	 y(2,1,0) = 0.07	 
y(0,1,1) = 0.14	 y(1,0,1) = 0.86	 
y(0,2,1) = 0.29	 y(2,0,1) = 0.71	 
y(1,2,1) = 0.87	 y(2,1,1) = 0.13	 
y(0,1,2) = 0.55	 y(1,0,2) = 0.45	 
y(0,2,2) = 0.68	 y(2,0,2) = 0.32	 
y(1,2,2) = 0.62	 y(2,1,2) = 0.38	 
{(1, 2), (0, 1), (2, 1), (2, 2), (1, 0), (0, 2)}
obj:  1.2081346946262164
erro
[(1, 2), (0, 1), (2, 1), (2, 2), (1, 0), (0, 2)]
cliques:  0 mip: 67
C:  25.0
x(0,0) = 23.83	 x(0,1) = 7.93	 x(0,2) = 14.93	 
x(1,0) = 15.00	 x(1,1) = 3.79	 x(1,2) = 18.00	 
x(2,0) = 22.03	 x(2,1) = 4.91	 x(2,2) = 12.00	 
y(0,1,0) = 0.00	 y(1,0,0) = 1.00	 
y(0,2,0) = 0.09	 y(2,0,0) = 0.91	 
y(1,2,0) = 0.92	 y(2,1,0) = 0.08	 
y(0,1,1) = 0.35	 y(1,0,1) = 0.65	 
y(0,2,1) = 0.28	 y(2,0,1) = 0.72	 
y(1,2,1) = 0.88	 y(2,1,1) = 0.12	 
y(0,1,2) = 0.63	 y(1,0,2) = 0.37	 
y(0,2,2) = 0.60	 y(2,0,2) = 0.40	 
y(1,2,2) = -0.00	 y(2,1,2) = 1.00	 
{(0, 1), (1, 2), (2, 1), (1, 1), (2, 2), (0, 2)}
obj:  0.9999999999999999
erro
[(0, 1), (1, 2), (2, 1), (1, 1), (2, 2), (0, 2)]
cliques:  0 mip: 73
C:  25.000000000000004
x(0,0) = 23.93	 x(0,1) = 7.60	 x(0,2) = 14.60	 
x(1,0) = 13.14	 x(1,1) = 2.16	 x(1,2) = 16.14	 
x(2,0) = 22.05	 x(2,1) = 6.16	 x(2,2) = 13.16	 
y(0,1,0) = 0.00	 y(1,0,0) = 1.00	 
y(0,2,0) = 0.04	 y(2,0,0) = 0.96	 
y(1,2,0) = 0.94	 y(2,1,0) = 0.06	 
y(0,1,1) = 0.40	 y(1,0,1) = 0.60	 
y(0,2,1) = 0.43	 y(2,0,1) = 0.57	 
y(1,2,1) = 1.00	 y(2,1,1) = 0.00	 
y(0,1,2) = 0.41	 y(1,0,2) = 0.59	 
y(0,2,2) = 0.37	 y(2,0,2) = 0.63	 
y(1,2,2) = 0.23	 y(2,1,2) = 0.77	 
{(0, 1), (2, 1)}
obj:  1.966286623577884
erro
[(0, 1), (2, 1)]
cliques:  0 mip: 76
C:  25.000000000000004
x(0,0) = 23.93	 x(0,1) = 9.28	 x(0,2) = 16.93	 
x(1,0) = 12.82	 x(1,1) = 0.00	 x(1,2) = 15.82	 
x(2,0) = 21.84	 x(2,1) = 5.72	 x(2,2) = 12.72	 
y(0,1,0) = 0.00	 y(1,0,0) = 1.00	 
y(0,2,0) = 0.03	 y(2,0,0) = 0.97	 
y(1,2,0) = 0.96	 y(2,1,0) = 0.04	 
y(0,1,1) = 0.12	 y(1,0,1) = 0.88	 
y(0,2,1) = 0.24	 y(2,0,1) = 0.76	 
y(1,2,1) = 0.78	 y(2,1,1) = 0.22	 
y(0,1,2) = 0.29	 y(1,0,2) = 0.71	 
y(0,2,2) = 0.30	 y(2,0,2) = 0.70	 
y(1,2,2) = 0.27	 y(2,1,2) = 0.73	 
{(0, 1), (1, 2), (2, 1), (2, 2), (0, 2)}
obj:  1.1194442288250321
erro
[(0, 1), (1, 2), (2, 1), (2, 2), (0, 2)]
cliques:  0 mip: 85
C:  25.000000000000004
x(0,0) = 23.93	 x(0,1) = 9.02	 x(0,2) = 16.93	 
x(1,0) = 11.59	 x(1,1) = 2.49	 x(1,2) = 14.59	 
x(2,0) = 21.71	 x(2,1) = 4.56	 x(2,2) = 11.87	 
y(0,1,0) = 0.00	 y(1,0,0) = 1.00	 
y(0,2,0) = 0.03	 y(2,0,0) = 0.97	 
y(1,2,0) = 0.90	 y(2,1,0) = 0.10	 
y(0,1,1) = 0.05	 y(1,0,1) = 0.95	 
y(0,2,1) = 0.23	 y(2,0,1) = 0.77	 
y(1,2,1) = 0.80	 y(2,1,1) = 0.20	 
y(0,1,2) = 0.35	 y(1,0,2) = 0.65	 
y(0,2,2) = 0.21	 y(2,0,2) = 0.79	 
y(1,2,2) = 0.35	 y(2,1,2) = 0.65	 
{(1, 2), (0, 1), (2, 1), (1, 1), (2, 2), (1, 0), (0, 2)}
obj:  1.0000000000000129
erro
[(1, 2), (0, 1), (2, 1), (1, 1), (2, 2), (1, 0), (0, 2)]
cliques:  0 mip: 94
C:  25.000000000000004
x(0,0) = 23.45	 x(0,1) = 9.36	 x(0,2) = 16.36	 
x(1,0) = 10.77	 x(1,1) = 2.49	 x(1,2) = 13.77	 
x(2,0) = 23.00	 x(2,1) = 4.59	 x(2,2) = 11.68	 
y(0,1,0) = 0.00	 y(1,0,0) = 1.00	 
y(0,2,0) = 0.28	 y(2,0,0) = 0.72	 
y(1,2,0) = 0.95	 y(2,1,0) = 0.05	 
y(0,1,1) = 0.10	 y(1,0,1) = 0.90	 
y(0,2,1) = 0.12	 y(2,0,1) = 0.88	 
y(1,2,1) = 0.84	 y(2,1,1) = 0.16	 
y(0,1,2) = 0.33	 y(1,0,2) = 0.67	 
y(0,2,2) = 0.18	 y(2,0,2) = 0.82	 
y(1,2,2) = 0.53	 y(2,1,2) = 0.47	 
{(1, 2), (0, 1), (0, 0), (2, 1), (1, 1), (2, 2), (1, 0), (0, 2)}
obj:  1.0246113860547497
erro
[(1, 2), (0, 1), (0, 0), (2, 1), (1, 1), (2, 2), (1, 0), (0, 2)]
cliques:  0 mip: 0
iterações: 15 cortes cliques encontrados: 3 mip: 1006 objective:  25.000000000000004
Coin0506I Presolve 65 (-61) rows, 39 (-25) columns and 202 (-86) elements
Clp1000I sum of infeasibilities 3.24924e-06 - average 4.99884e-08, 0 fixed columns
Coin0506I Presolve 65 (0) rows, 39 (0) columns and 202 (0) elements
Clp0029I End of values pass after 39 iterations
Clp0000I Optimal - objective value 15
Clp0000I Optimal - objective value 15
Coin0511I After Postsolve, objective 15, infeasibilities - dual 0 (0), primal 0 (0)
Clp0000I Optimal - objective value 15
Clp0000I Optimal - objective value 15
Clp0000I Optimal - objective value 15
Coin0511I After Postsolve, objective 15, infeasibilities - dual 0 (0), primal 0 (0)
Clp0032I Optimal objective 15 - 0 iterations time 0.002, Presolve 0.00, Idiot 0.00
Coin3009W Conflict graph built in 0.000 seconds, density: 0.147%
